set NumParts := 1 2 3 4 5;
set NumShops := 1 2;

param: time :=
1 1 2
1 2 3
2 1 1
2 2 2
3 1 3
3 2 2
4 1 3
4 2 1
5 1 1
5 2 1
;

param profit :=
1 30
2 20
3 40
4 25
5 10
;

param capacity :=
1 700
2 1000
;
